452 5
10 10 10 10 10 

0 0 0 0 0 0 1 2 
0 0 0 0 0 0 3 3 4 6 
4 3 0 0 0 0 4 12 10 9 7 
8 9 0 0 0 0 3 11 8 5 
10 10 0 0 0 0 2 10 9 
7 7 0 0 0 0 1 7 
1 10 0 0 0 0 1 8 
9 6 0 0 0 0 1 13 
10 8 0 0 0 0 1 13 
10 10 0 0 0 0 1 13 
6 8 0 0 0 0 1 13 
3 4 0 0 0 0 1 13 
0 0 0 0 0 0 4 14 56 98 110 
0 0 0 0 0 0 5 15 18 20 21 25 
9 6 4 3 8 0 3 23 19 16 
7 3 7 7 5 0 2 27 17 
8 7 8 4 4 0 6 54 32 30 28 24 22 
3 6 6 8 8 0 5 54 32 30 28 22 
1 10 4 10 4 0 9 54 43 40 38 34 31 30 29 28 
10 7 9 7 7 0 7 43 42 41 35 34 26 23 
9 7 7 8 10 0 7 43 38 35 34 29 28 24 
5 3 10 5 6 0 9 43 42 41 40 38 36 35 34 26 
1 10 6 10 10 0 4 38 36 30 27 
4 8 6 9 10 0 4 42 41 36 33 
6 6 10 10 10 0 4 40 36 35 30 
2 8 10 8 8 0 4 48 47 44 33 
4 5 6 7 10 0 3 44 40 32 
4 8 9 10 10 0 2 42 33 
1 10 4 10 8 0 2 48 32 
4 7 6 5 9 0 3 48 44 37 
1 8 10 8 7 0 3 45 41 36 
4 10 9 8 8 0 3 53 47 37 
2 10 8 4 8 0 2 53 37 
5 10 9 3 7 0 2 53 37 
9 10 10 10 9 0 2 47 37 
3 7 8 8 6 0 4 53 52 47 46 
10 8 10 6 10 0 1 39 
5 8 10 6 10 0 4 53 52 51 47 
9 7 9 10 6 0 3 52 46 45 
7 10 10 10 5 0 3 47 46 45 
9 7 7 8 4 0 2 51 44 
4 7 9 6 6 0 2 48 45 
4 5 4 5 5 0 1 44 
1 7 3 10 7 0 4 53 52 50 49 
2 8 7 4 6 0 2 50 49 
1 6 9 4 7 0 2 51 49 
6 8 10 10 10 0 2 50 49 
1 5 5 9 9 0 2 51 238 
8 10 10 9 9 0 1 55 
4 7 6 10 6 0 1 55 
2 6 9 10 6 0 1 55 
10 7 6 7 7 0 1 55 
4 10 5 4 7 0 1 55 
8 8 5 10 8 0 1 55 
0 0 0 0 0 0 1 452 
0 0 0 0 0 0 6 57 61 64 65 69 77 
8 3 0 4 4 3 3 63 60 58 
9 5 0 7 10 9 2 66 59 
7 8 0 7 4 6 8 96 95 88 84 78 73 72 62 
5 4 0 6 6 7 8 96 88 84 83 79 73 72 68 
4 7 0 4 7 7 2 79 63 
1 4 0 10 9 6 6 94 83 80 79 74 67 
10 5 0 5 4 5 5 94 83 81 73 71 
4 3 0 7 3 6 5 95 94 84 82 67 
4 5 0 9 6 10 4 95 88 78 71 
7 10 0 5 10 10 3 95 80 70 
2 10 0 10 9 6 2 87 70 
3 9 0 9 9 8 2 94 71 
3 8 0 6 7 10 2 84 75 
2 10 0 9 5 7 2 93 75 
3 10 0 6 6 10 2 87 75 
5 10 0 10 9 6 2 94 75 
6 7 0 5 5 8 2 93 76 
5 10 0 10 8 5 3 93 76 240 
10 7 0 10 10 10 1 76 
3 6 0 7 10 9 4 92 89 86 85 
6 6 0 10 5 9 2 91 82 
7 10 0 7 9 9 3 92 90 89 
2 6 0 5 8 6 1 82 
4 7 0 10 9 9 1 82 
8 10 0 10 7 6 1 84 
7 9 0 10 9 9 2 93 89 
9 6 0 7 8 10 2 93 89 
4 9 0 8 6 10 1 87 
6 7 0 7 7 7 1 91 
8 5 0 6 10 8 1 90 
6 8 0 7 8 5 1 90 
3 9 0 8 5 3 1 94 
9 10 0 5 7 8 1 97 
1 8 0 10 10 8 1 97 
4 10 0 9 10 9 1 97 
4 8 0 2 8 6 1 97 
10 7 0 8 9 9 1 97 
7 8 0 10 8 6 1 97 
3 8 0 10 8 9 1 97 
4 8 0 5 8 6 1 97 
0 0 0 0 0 0 1 452 
0 0 0 0 0 0 4 99 100 102 108 
8 0 3 0 0 0 2 107 101 
10 0 7 0 0 0 3 105 104 103 
8 0 8 0 0 0 2 106 103 
7 0 10 0 0 0 2 105 104 
8 0 8 0 0 0 1 109 
7 0 9 0 0 0 1 109 
2 0 4 0 0 0 1 109 
10 0 10 0 0 0 2 109 378 
4 0 6 0 0 0 1 109 
10 0 10 0 0 0 1 109 
0 0 0 0 0 0 5 152 184 216 248 260 
0 0 0 0 0 0 5 111 115 116 118 121 
4 3 4 0 4 2 4 125 119 114 112 
4 5 3 0 7 10 2 129 113 
4 10 8 0 10 7 8 150 136 131 127 126 124 120 117 
3 6 8 0 6 7 10 150 138 136 135 134 130 128 127 126 123 
10 7 10 0 7 4 6 138 135 131 130 122 119 
3 10 8 0 10 8 5 139 136 127 124 117 
3 6 7 0 9 9 6 138 137 135 134 130 122 
9 7 9 0 10 9 6 139 137 135 131 128 123 
3 9 6 0 10 10 5 134 129 127 124 342 
3 10 6 0 7 8 5 143 139 137 135 128 
9 6 10 0 6 8 3 136 132 127 
5 10 7 0 10 10 3 149 143 128 
2 9 9 0 9 6 2 149 124 
6 1 7 0 7 8 3 148 143 132 
9 8 10 0 6 8 3 143 139 135 
2 10 6 0 10 6 2 137 132 
7 10 10 0 7 10 3 149 148 133 
4 10 9 0 6 10 2 148 132 
1 6 4 0 7 2 2 141 136 
6 6 10 0 6 8 2 148 133 
3 8 5 0 10 8 2 143 133 
9 5 10 0 7 5 1 133 
1 8 7 0 10 6 3 146 142 140 
2 6 8 0 6 10 4 148 146 144 143 
9 7 4 0 9 8 3 145 144 141 
9 10 5 0 6 9 2 143 140 
3 4 8 0 10 4 4 149 147 145 144 
2 5 10 0 6 9 2 144 141 
5 9 10 0 5 6 1 140 
6 8 7 0 9 10 2 147 144 
2 9 6 0 9 5 2 148 146 
10 8 10 0 8 7 1 145 
1 8 9 0 5 9 1 145 
9 8 7 0 10 10 1 151 
3 8 10 0 5 10 1 151 
1 9 7 0 10 6 1 151 
2 6 6 0 4 10 1 151 
3 7 7 0 7 7 1 151 
10 10 10 0 3 5 1 151 
9 8 3 0 7 6 1 151 
0 0 0 0 0 0 1 452 
0 0 0 0 0 0 6 153 154 155 156 157 162 
10 4 7 0 5 0 5 170 169 160 159 158 
4 6 9 0 7 0 5 169 167 166 160 159 
4 8 6 0 9 0 4 170 166 160 159 
3 9 7 0 8 0 4 171 170 159 158 
6 5 10 0 6 0 3 171 170 158 
6 5 10 0 7 0 4 172 167 166 165 
7 10 8 0 6 0 3 165 164 163 
9 5 8 0 10 0 1 161 
10 6 5 0 7 0 3 172 171 168 
7 9 9 0 9 0 2 172 165 
2 8 10 0 10 0 2 172 168 
5 10 8 0 3 0 2 172 168 
8 10 6 0 6 0 1 168 
3 10 10 0 7 0 1 168 
2 8 10 0 7 0 1 168 
9 5 3 0 9 0 5 182 181 178 174 173 
5 9 10 0 8 0 3 181 174 173 
7 9 10 0 8 0 2 178 172 
8 8 7 0 10 0 2 181 173 
6 7 3 0 7 0 4 182 181 180 176 
9 4 4 0 5 0 2 180 175 
1 10 10 0 7 0 2 180 177 
9 10 4 0 8 0 1 176 
2 6 6 0 8 0 1 179 
4 6 4 0 9 0 1 179 
6 7 10 0 6 0 1 180 
3 9 10 0 6 0 1 183 
6 9 10 0 8 0 1 183 
10 4 4 0 10 0 1 183 
8 9 7 0 9 0 1 183 
0 0 0 0 0 0 1 452 
0 0 0 0 0 0 6 185 186 187 188 192 214 
10 0 2 4 3 0 4 196 191 190 189 
4 0 9 4 8 0 5 203 202 196 195 193 
1 0 6 5 8 0 6 213 210 207 204 203 191 
7 0 8 5 10 0 5 212 203 202 195 193 
8 0 7 10 3 0 4 207 204 202 193 
5 0 5 7 4 0 3 208 197 194 
4 0 8 5 10 0 4 208 202 201 198 
10 0 9 8 10 0 4 211 199 197 196 
8 0 8 4 10 0 2 208 194 
2 0 8 8 10 0 3 210 201 198 
4 0 10 7 9 0 1 198 
6 0 9 9 7 0 2 207 200 
3 0 4 10 10 0 2 207 201 
4 0 10 5 4 0 1 199 
2 0 5 9 7 0 1 200 
6 0 9 6 7 0 1 205 
2 0 4 10 10 0 1 206 
1 0 10 10 9 0 1 209 
1 0 7 7 9 0 1 205 
7 0 9 10 9 0 1 209 
8 0 10 5 7 0 1 215 
4 0 9 10 7 0 1 215 
4 0 6 7 8 0 1 215 
4 0 10 6 3 0 1 215 
8 0 7 9 9 0 1 215 
4 0 7 10 9 0 1 215 
8 0 8 10 7 0 1 215 
9 0 6 7 7 0 1 215 
1 0 5 8 4 0 1 215 
6 0 10 10 7 0 1 215 
0 0 0 0 0 0 1 452 
0 0 0 0 0 0 6 217 218 219 220 221 246 
3 5 3 5 0 0 5 229 225 224 223 222 
8 5 9 4 0 0 5 231 229 225 223 222 
4 10 8 8 0 0 5 238 226 225 223 222 
9 10 6 9 0 0 4 232 225 224 222 
6 10 8 9 0 0 2 245 224 
5 7 6 7 0 0 2 228 227 
6 8 9 6 0 0 3 233 232 230 
7 5 10 9 0 0 2 231 226 
8 10 8 6 0 0 2 233 230 
5 8 10 9 0 0 2 242 230 
2 6 6 7 0 0 2 242 230 
10 5 10 3 0 0 4 243 237 234 233 
5 7 8 10 0 0 1 230 
3 5 10 8 0 0 5 244 243 241 237 234 
8 10 10 6 0 0 5 244 243 241 237 234 
8 6 5 9 0 0 2 242 234 
7 7 10 8 0 0 3 242 241 240 
2 4 5 9 0 0 1 235 
7 10 6 10 0 0 1 236 
4 5 8 10 0 0 1 239 
2 10 7 7 0 0 1 240 
3 7 6 4 0 0 1 242 
7 8 10 10 0 0 1 247 
8 8 8 8 0 0 1 247 
1 10 6 10 0 0 1 247 
10 7 6 9 0 0 1 247 
1 8 8 8 0 0 1 247 
8 6 8 7 0 0 1 247 
2 10 5 5 0 0 1 247 
2 8 6 5 0 0 1 247 
0 0 0 0 0 0 1 452 
0 0 0 0 0 0 3 249 251 253 
2 0 0 0 6 0 3 258 252 250 
5 0 0 0 4 0 3 257 256 255 
7 0 0 0 4 0 2 256 254 
3 0 0 0 6 0 2 257 255 
4 0 0 0 10 0 2 256 255 
7 0 0 0 7 0 1 255 
2 0 0 0 9 0 1 259 
8 0 0 0 9 0 1 259 
2 0 0 0 10 0 1 259 
5 0 0 0 10 0 1 259 
0 0 0 0 0 0 5 292 304 326 348 370 
0 0 0 0 0 0 6 261 262 263 264 265 275 
3 3 0 4 5 0 5 279 277 268 267 266 
6 10 0 10 6 0 5 277 274 273 268 266 
5 10 0 5 10 0 4 279 273 268 266 
2 3 0 4 7 0 4 279 278 267 266 
3 6 0 5 10 0 3 279 278 267 
5 7 0 6 10 0 3 272 270 269 
3 9 0 10 10 0 3 274 273 272 
5 6 0 10 6 0 2 278 271 
9 3 0 10 5 0 2 281 276 
7 10 0 8 6 0 2 281 276 
9 7 0 9 6 0 2 281 276 
5 6 0 10 7 0 1 276 
10 9 0 8 10 0 1 276 
4 10 0 8 9 0 1 276 
1 6 0 10 4 0 1 276 
7 9 0 6 6 0 5 290 289 286 282 280 
3 8 0 6 10 0 3 289 283 282 
1 10 0 9 10 0 2 289 280 
7 4 0 5 10 0 2 287 281 
4 8 0 10 5 0 2 288 283 
6 7 0 9 2 0 3 290 289 288 
9 9 0 8 6 0 2 288 285 
1 9 0 9 10 0 1 284 
2 6 0 8 10 0 1 287 
2 10 0 6 4 0 1 287 
3 7 0 5 8 0 1 288 
9 5 0 5 10 0 1 291 
4 10 0 8 8 0 1 291 
4 10 0 10 7 0 1 291 
3 8 0 4 8 0 1 291 
0 0 0 0 0 0 1 452 
0 0 0 0 0 0 5 293 294 296 297 302 
3 0 2 0 0 0 4 300 299 298 295 
6 0 5 0 0 0 2 300 298 
2 0 10 0 0 0 1 301 
8 0 8 0 0 0 1 299 
5 0 4 0 0 0 1 298 
9 0 8 0 0 0 1 303 
3 0 9 0 0 0 1 303 
10 0 10 0 0 0 1 303 
2 0 9 0 0 0 1 303 
7 0 10 0 0 0 1 303 
0 0 0 0 0 0 5 392 404 416 428 440 
0 0 0 0 0 0 8 305 306 307 309 310 311 317 324 
7 2 0 0 2 0 4 323 321 312 308 
3 7 0 0 8 0 6 322 321 320 319 316 312 
8 8 0 0 7 0 4 322 320 319 315 
4 2 0 0 8 0 3 320 319 313 
2 10 0 0 8 0 3 322 321 314 
3 9 0 0 10 0 3 321 320 314 
5 8 0 0 6 0 1 312 
7 10 0 0 8 0 1 314 
7 10 0 0 7 0 1 314 
10 8 0 0 5 0 1 318 
4 10 0 0 10 0 1 318 
2 10 0 0 9 0 1 318 
10 4 0 0 10 0 1 319 
10 6 0 0 9 0 1 325 
8 8 0 0 6 0 1 325 
3 8 0 0 10 0 1 325 
2 10 0 0 9 0 1 325 
1 6 0 0 7 0 1 325 
5 7 0 0 6 0 1 325 
7 7 0 0 5 0 1 325 
0 0 0 0 0 0 1 452 
0 0 0 0 0 0 6 327 330 333 335 345 346 
2 0 7 0 0 1 2 344 328 
9 0 4 0 0 9 4 343 338 334 329 
2 0 10 0 0 10 4 342 341 336 332 
7 0 8 0 0 10 3 340 337 331 
6 0 8 0 0 10 2 338 334 
2 0 9 0 0 9 2 339 337 
2 0 3 0 0 5 2 340 336 
1 0 10 0 0 4 1 336 
1 0 10 0 0 10 1 340 
2 0 6 0 0 10 1 347 
7 0 8 0 0 10 1 347 
4 0 8 0 0 7 1 347 
6 0 6 0 0 5 1 347 
4 0 4 0 0 10 1 347 
2 0 5 0 0 8 1 347 
4 0 9 0 0 9 1 347 
8 0 10 0 0 4 1 347 
10 0 8 0 0 7 1 347 
3 0 8 0 0 6 1 347 
5 0 9 0 0 6 1 347 
0 0 0 0 0 0 1 452 
0 0 0 0 0 0 6 349 350 351 353 355 356 
3 10 0 0 4 0 3 368 360 352 
7 5 0 0 10 0 3 368 358 354 
2 2 0 0 7 0 4 368 361 360 357 
6 8 0 0 10 0 4 367 363 358 357 
10 10 0 0 10 0 4 367 363 359 358 
6 7 0 0 9 0 5 367 366 365 363 360 
2 8 0 0 3 0 5 367 366 365 363 360 
8 7 0 0 10 0 3 368 360 357 
4 8 0 0 4 0 3 366 365 364 
8 4 0 0 7 0 2 366 362 
5 8 0 0 10 0 2 365 364 
4 9 0 0 10 0 1 362 
4 8 0 0 8 0 1 363 
8 10 0 0 7 0 1 364 
6 4 0 0 7 0 1 364 
7 9 0 0 10 0 1 369 
8 8 0 0 10 0 1 369 
8 5 0 0 3 0 1 369 
7 10 0 0 5 0 1 369 
6 10 0 0 6 0 1 369 
0 0 0 0 0 0 1 452 
0 0 0 0 0 0 6 371 372 373 374 375 376 
4 0 0 4 3 0 4 384 379 378 377 
4 0 0 6 7 0 4 390 389 378 377 
1 0 0 9 9 0 6 390 388 387 382 381 379 
7 0 0 9 2 0 4 390 389 381 377 
4 0 0 10 5 0 3 390 389 377 
3 0 0 8 7 0 4 389 388 387 380 
7 0 0 7 9 0 4 388 387 383 382 
5 0 0 7 10 0 3 388 387 381 
5 0 0 5 5 0 3 389 386 383 
6 0 0 5 8 0 2 383 382 
10 0 0 5 8 0 2 386 383 
4 0 0 9 10 0 2 386 385 
3 0 0 10 10 0 1 385 
9 0 0 10 6 0 1 385 
8 0 0 6 6 0 1 391 
8 0 0 7 8 0 1 391 
2 0 0 10 7 0 1 391 
1 0 0 7 10 0 1 391 
8 0 0 6 10 0 1 391 
6 0 0 10 10 0 1 391 
0 0 0 0 0 0 1 452 
0 0 0 0 0 0 4 393 394 396 397 
9 0 3 0 0 0 3 402 401 395 
10 0 7 0 0 0 4 402 400 399 398 
2 0 10 0 0 0 3 400 399 398 
6 0 9 0 0 0 3 401 399 398 
8 0 10 0 0 0 1 398 
10 0 10 0 0 0 1 403 
9 0 3 0 0 0 1 403 
1 0 10 0 0 0 1 403 
9 0 5 0 0 0 1 403 
10 0 8 0 0 0 1 403 
0 0 0 0 0 0 1 452 
0 0 0 0 0 0 5 405 406 407 409 410 
3 0 0 0 0 4 4 414 413 412 411 
2 0 0 0 0 7 2 413 411 
10 0 0 0 0 6 1 408 
6 0 0 0 0 10 1 411 
1 0 0 0 0 10 1 412 
3 0 0 0 0 10 1 412 
4 0 0 0 0 9 1 415 
3 0 0 0 0 10 1 415 
10 0 0 0 0 5 1 415 
4 0 0 0 0 4 1 415 
0 0 0 0 0 0 1 452 
0 0 0 0 0 0 5 417 418 419 420 426 
7 0 0 0 0 4 3 424 423 421 
7 0 0 0 0 9 3 425 424 422 
4 0 0 0 0 7 3 424 423 422 
7 0 0 0 0 6 2 423 422 
6 0 0 0 0 6 1 422 
10 0 0 0 0 9 1 427 
4 0 0 0 0 8 1 427 
3 0 0 0 0 10 1 427 
3 0 0 0 0 10 1 427 
9 0 0 0 0 6 1 427 
0 0 0 0 0 0 1 452 
0 0 0 0 0 0 5 429 430 432 437 438 
1 0 0 2 0 0 2 434 431 
6 0 0 7 0 0 2 436 433 
3 0 0 5 0 0 2 436 435 
5 0 0 7 0 0 2 435 434 
2 0 0 10 0 0 1 434 
5 0 0 10 0 0 1 439 
8 0 0 6 0 0 1 439 
9 0 0 10 0 0 1 439 
8 0 0 10 0 0 1 439 
6 0 0 8 0 0 1 439 
0 0 0 0 0 0 1 452 
0 0 0 0 0 0 5 441 442 448 449 450 
2 0 0 0 0 3 4 447 446 445 443 
7 0 0 0 0 10 2 445 444 
10 0 0 0 0 10 1 444 
8 0 0 0 0 4 1 451 
3 0 0 0 0 7 1 451 
2 0 0 0 0 10 1 451 
4 0 0 0 0 6 1 451 
4 0 0 0 0 5 1 451 
6 0 0 0 0 10 1 451 
4 0 0 0 0 10 1 451 
0 0 0 0 0 0 1 452 
0 0 0 0 0 0 0 
